\Problem name: compact

Minimize
OBJROW: C
Subject To
ord(0,1):  - x(0,0) + x(0,3) >= 3
ord(0,2):  x(0,1) - x(0,3) >= 10
ord(0,3):  - x(0,1) + x(0,2) >= 6
ord(1,1):  x(1,0) - x(1,2) >= 1
ord(1,2):  - x(1,0) + x(1,1) >= 3
ord(1,3):  - x(1,1) + x(1,3) >= 4
ord(2,1):  - x(2,0) + x(2,2) >= 2
ord(2,2):  - x(2,2) + x(2,3) >= 1
ord(2,3):  x(2,1) - x(2,3) >= 10
ord(3,1):  - x(3,0) + x(3,2) >= 8
ord(3,2):  - x(3,2) + x(3,3) >= 10
ord(3,3):  x(3,1) - x(3,3) >= 10
ord(4,1):  - x(4,1) + x(4,2) >= 6
ord(4,2):  x(4,0) - x(4,2) >= 10
ord(4,3):  - x(4,0) + x(4,3) >= 9
triangle2(0,1,0):  y(0,1,0) + y(1,0,0) = 1
triangle2(0,1,1):  y(0,1,1) + y(1,0,1) = 1
triangle2(0,1,2):  y(0,1,2) + y(1,0,2) = 1
triangle2(0,1,3):  y(0,1,3) + y(1,0,3) = 1
triangle2(0,2,0):  y(0,2,0) + y(2,0,0) = 1
triangle2(0,2,1):  y(0,2,1) + y(2,0,1) = 1
triangle2(0,2,2):  y(0,2,2) + y(2,0,2) = 1
triangle2(0,2,3):  y(0,2,3) + y(2,0,3) = 1
triangle2(0,3,0):  y(0,3,0) + y(3,0,0) = 1
triangle2(0,3,1):  y(0,3,1) + y(3,0,1) = 1
triangle2(0,3,2):  y(0,3,2) + y(3,0,2) = 1
triangle2(0,3,3):  y(0,3,3) + y(3,0,3) = 1
triangle2(0,4,0):  y(0,4,0) + y(4,0,0) = 1
triangle2(0,4,1):  y(0,4,1) + y(4,0,1) = 1
triangle2(0,4,2):  y(0,4,2) + y(4,0,2) = 1
triangle2(0,4,3):  y(0,4,3) + y(4,0,3) = 1
triangle2(1,2,0):  y(1,2,0) + y(2,1,0) = 1
triangle2(1,2,1):  y(1,2,1) + y(2,1,1) = 1
triangle2(1,2,2):  y(1,2,2) + y(2,1,2) = 1
triangle2(1,2,3):  y(1,2,3) + y(2,1,3) = 1
triangle2(1,3,0):  y(1,3,0) + y(3,1,0) = 1
triangle2(1,3,1):  y(1,3,1) + y(3,1,1) = 1
triangle2(1,3,2):  y(1,3,2) + y(3,1,2) = 1
triangle2(1,3,3):  y(1,3,3) + y(3,1,3) = 1
triangle2(1,4,0):  y(1,4,0) + y(4,1,0) = 1
triangle2(1,4,1):  y(1,4,1) + y(4,1,1) = 1
triangle2(1,4,2):  y(1,4,2) + y(4,1,2) = 1
triangle2(1,4,3):  y(1,4,3) + y(4,1,3) = 1
triangle2(2,3,0):  y(2,3,0) + y(3,2,0) = 1
triangle2(2,3,1):  y(2,3,1) + y(3,2,1) = 1
triangle2(2,3,2):  y(2,3,2) + y(3,2,2) = 1
triangle2(2,3,3):  y(2,3,3) + y(3,2,3) = 1
triangle2(2,4,0):  y(2,4,0) + y(4,2,0) = 1
triangle2(2,4,1):  y(2,4,1) + y(4,2,1) = 1
triangle2(2,4,2):  y(2,4,2) + y(4,2,2) = 1
triangle2(2,4,3):  y(2,4,3) + y(4,2,3) = 1
triangle2(3,4,0):  y(3,4,0) + y(4,3,0) = 1
triangle2(3,4,1):  y(3,4,1) + y(4,3,1) = 1
triangle2(3,4,2):  y(3,4,2) + y(4,3,2) = 1
triangle2(3,4,3):  y(3,4,3) + y(4,3,3) = 1
MCLinV(0,1,0):  x(0,0) - v(0,1,0) - x(1,0) = 3
MCLinV(1,0,0):  - x(0,0) - v(1,0,0) + x(1,0) = 3
MCLin1(0,1,0):  u(0,1,0) >= -0
MCLin2(0,1,0):  -102 y(1,0,0) - u(0,1,0) <= -0
MCLin3(0,1,0):  83 y(1,0,0) + v(0,1,0) - u(0,1,0) <= 83
MCLin4(0,1,0):  83 y(1,0,0) - u(0,1,0) >= -0
MCLin5(0,1,0):  -102 y(1,0,0) + v(0,1,0) - u(0,1,0) >= -102
MCLin6(1,0,0):  u(1,0,0) >= -0
MCLin7(1,0,0):  -89 y(0,1,0) - u(1,0,0) <= -0
MCLin8(1,0,0):  96 y(0,1,0) + v(1,0,0) - u(1,0,0) <= 96
MCLin9(1,0,0):  96 y(0,1,0) - u(1,0,0) >= -0
MCLin10(1,0,0):  -89 y(0,1,0) + v(1,0,0) - u(1,0,0) >= -89
MCLinV(0,1,1):  x(0,1) - v(0,1,1) - x(1,1) = 4
MCLinV(1,0,1):  - x(0,1) - v(1,0,1) + x(1,1) = 6
MCLin1(0,1,1):  u(0,1,1) >= -0
MCLin2(0,1,1):  -93 y(1,0,1) - u(0,1,1) <= -0
MCLin3(0,1,1):  92 y(1,0,1) + v(0,1,1) - u(0,1,1) <= 92
MCLin4(0,1,1):  92 y(1,0,1) - u(0,1,1) >= -0
MCLin5(0,1,1):  -93 y(1,0,1) + v(0,1,1) - u(0,1,1) >= -93
MCLin6(1,0,1):  u(1,0,1) >= -0
MCLin7(1,0,1):  -102 y(0,1,1) - u(1,0,1) <= -0
MCLin8(1,0,1):  83 y(0,1,1) + v(1,0,1) - u(1,0,1) <= 83
MCLin9(1,0,1):  83 y(0,1,1) - u(1,0,1) >= -0
MCLin10(1,0,1):  -102 y(0,1,1) + v(1,0,1) - u(1,0,1) >= -102
MCLinV(0,1,2):  x(0,2) - v(0,1,2) - x(1,2) = 1
MCLinV(1,0,2):  - x(0,2) - v(1,0,2) + x(1,2) = 5
MCLin1(0,1,2):  u(0,1,2) >= -0
MCLin2(0,1,2):  -80 y(1,0,2) - u(0,1,2) <= -0
MCLin3(0,1,2):  105 y(1,0,2) + v(0,1,2) - u(0,1,2) <= 105
MCLin4(0,1,2):  105 y(1,0,2) - u(0,1,2) >= -0
MCLin5(0,1,2):  -80 y(1,0,2) + v(0,1,2) - u(0,1,2) >= -80
MCLin6(1,0,2):  u(1,0,2) >= -0
MCLin7(1,0,2):  -111 y(0,1,2) - u(1,0,2) <= -0
MCLin8(1,0,2):  74 y(0,1,2) + v(1,0,2) - u(1,0,2) <= 74
MCLin9(1,0,2):  74 y(0,1,2) - u(1,0,2) >= -0
MCLin10(1,0,2):  -111 y(0,1,2) + v(1,0,2) - u(1,0,2) >= -111
MCLinV(0,1,3):  x(0,3) - v(0,1,3) - x(1,3) = 5
MCLinV(1,0,3):  - x(0,3) - v(1,0,3) + x(1,3) = 10
MCLin1(0,1,3):  u(0,1,3) >= -0
MCLin2(0,1,3):  -108 y(1,0,3) - u(0,1,3) <= -0
MCLin3(0,1,3):  77 y(1,0,3) + v(0,1,3) - u(0,1,3) <= 77
MCLin4(0,1,3):  77 y(1,0,3) - u(0,1,3) >= -0
MCLin5(0,1,3):  -108 y(1,0,3) + v(0,1,3) - u(0,1,3) >= -108
MCLin6(1,0,3):  u(1,0,3) >= -0
MCLin7(1,0,3):  -92 y(0,1,3) - u(1,0,3) <= -0
MCLin8(1,0,3):  93 y(0,1,3) + v(1,0,3) - u(1,0,3) <= 93
MCLin9(1,0,3):  93 y(0,1,3) - u(1,0,3) >= -0
MCLin10(1,0,3):  -92 y(0,1,3) + v(1,0,3) - u(1,0,3) >= -92
MCLinV(0,2,0):  x(0,0) - v(0,2,0) - x(2,0) = 2
MCLinV(2,0,0):  - x(0,0) - v(2,0,0) + x(2,0) = 3
MCLin1(0,2,0):  u(0,2,0) >= -0
MCLin2(0,2,0):  -94 y(2,0,0) - u(0,2,0) <= -0
MCLin3(0,2,0):  85 y(2,0,0) + v(0,2,0) - u(0,2,0) <= 85
MCLin4(0,2,0):  85 y(2,0,0) - u(0,2,0) >= -0
MCLin5(0,2,0):  -94 y(2,0,0) + v(0,2,0) - u(0,2,0) >= -94
MCLin6(2,0,0):  u(2,0,0) >= -0
MCLin7(2,0,0):  -90 y(0,2,0) - u(2,0,0) <= -0
MCLin8(2,0,0):  89 y(0,2,0) + v(2,0,0) - u(2,0,0) <= 89
MCLin9(2,0,0):  89 y(0,2,0) - u(2,0,0) >= -0
MCLin10(2,0,0):  -90 y(0,2,0) + v(2,0,0) - u(2,0,0) >= -90
MCLinV(0,2,1):  x(0,1) - v(0,2,1) - x(2,1) = 6
MCLinV(2,0,1):  - x(0,1) - v(2,0,1) + x(2,1) = 6
MCLin1(0,2,1):  u(0,2,1) >= -0
MCLin2(0,2,1):  -98 y(2,0,1) - u(0,2,1) <= -0
MCLin3(0,2,1):  81 y(2,0,1) + v(0,2,1) - u(0,2,1) <= 81
MCLin4(0,2,1):  81 y(2,0,1) - u(0,2,1) >= -0
MCLin5(0,2,1):  -98 y(2,0,1) + v(0,2,1) - u(0,2,1) >= -98
MCLin6(2,0,1):  u(2,0,1) >= -0
MCLin7(2,0,1):  -93 y(0,2,1) - u(2,0,1) <= -0
MCLin8(2,0,1):  86 y(0,2,1) + v(2,0,1) - u(2,0,1) <= 86
MCLin9(2,0,1):  86 y(0,2,1) - u(2,0,1) >= -0
MCLin10(2,0,1):  -93 y(0,2,1) + v(2,0,1) - u(2,0,1) >= -93
MCLinV(0,2,2):  x(0,2) - v(0,2,2) - x(2,2) = 1
MCLinV(2,0,2):  - x(0,2) - v(2,0,2) + x(2,2) = 5
MCLin1(0,2,2):  u(0,2,2) >= -0
MCLin2(0,2,2):  -76 y(2,0,2) - u(0,2,2) <= -0
MCLin3(0,2,2):  103 y(2,0,2) + v(0,2,2) - u(0,2,2) <= 103
MCLin4(0,2,2):  103 y(2,0,2) - u(0,2,2) >= -0
MCLin5(0,2,2):  -76 y(2,0,2) + v(0,2,2) - u(0,2,2) >= -76
MCLin6(2,0,2):  u(2,0,2) >= -0
MCLin7(2,0,2):  -109 y(0,2,2) - u(2,0,2) <= -0
MCLin8(2,0,2):  70 y(0,2,2) + v(2,0,2) - u(2,0,2) <= 70
MCLin9(2,0,2):  70 y(0,2,2) - u(2,0,2) >= -0
MCLin10(2,0,2):  -109 y(0,2,2) + v(2,0,2) - u(2,0,2) >= -109
MCLinV(0,2,3):  x(0,3) - v(0,2,3) - x(2,3) = 10
MCLinV(2,0,3):  - x(0,3) - v(2,0,3) + x(2,3) = 10
MCLin1(0,2,3):  u(0,2,3) >= -0
MCLin2(0,2,3):  -102 y(2,0,3) - u(0,2,3) <= -0
MCLin3(0,2,3):  77 y(2,0,3) + v(0,2,3) - u(0,2,3) <= 77
MCLin4(0,2,3):  77 y(2,0,3) - u(0,2,3) >= -0
MCLin5(0,2,3):  -102 y(2,0,3) + v(0,2,3) - u(0,2,3) >= -102
MCLin6(2,0,3):  u(2,0,3) >= -0
MCLin7(2,0,3):  -97 y(0,2,3) - u(2,0,3) <= -0
MCLin8(2,0,3):  82 y(0,2,3) + v(2,0,3) - u(2,0,3) <= 82
MCLin9(2,0,3):  82 y(0,2,3) - u(2,0,3) >= -0
MCLin10(2,0,3):  -97 y(0,2,3) + v(2,0,3) - u(2,0,3) >= -97
MCLinV(0,3,0):  x(0,0) - v(0,3,0) - x(3,0) = 8
MCLinV(3,0,0):  - x(0,0) - v(3,0,0) + x(3,0) = 3
MCLin1(0,3,0):  u(0,3,0) >= -0
MCLin2(0,3,0):  -90 y(3,0,0) - u(0,3,0) <= -0
MCLin3(0,3,0):  79 y(3,0,0) + v(0,3,0) - u(0,3,0) <= 79
MCLin4(0,3,0):  79 y(3,0,0) - u(0,3,0) >= -0
MCLin5(0,3,0):  -90 y(3,0,0) + v(0,3,0) - u(0,3,0) >= -90
MCLin6(3,0,0):  u(3,0,0) >= -0
MCLin7(3,0,0):  -90 y(0,3,0) - u(3,0,0) <= -0
MCLin8(3,0,0):  79 y(0,3,0) + v(3,0,0) - u(3,0,0) <= 79
MCLin9(3,0,0):  79 y(0,3,0) - u(3,0,0) >= -0
MCLin10(3,0,0):  -90 y(0,3,0) + v(3,0,0) - u(3,0,0) >= -90
MCLinV(0,3,1):  x(0,1) - v(0,3,1) - x(3,1) = 1
MCLinV(3,0,1):  - x(0,1) - v(3,0,1) + x(3,1) = 6
MCLin1(0,3,1):  u(0,3,1) >= -0
MCLin2(0,3,1):  -98 y(3,0,1) - u(0,3,1) <= -0
MCLin3(0,3,1):  71 y(3,0,1) + v(0,3,1) - u(0,3,1) <= 71
MCLin4(0,3,1):  71 y(3,0,1) - u(0,3,1) >= -0
MCLin5(0,3,1):  -98 y(3,0,1) + v(0,3,1) - u(0,3,1) >= -98
MCLin6(3,0,1):  u(3,0,1) >= -0
MCLin7(3,0,1):  -78 y(0,3,1) - u(3,0,1) <= -0
MCLin8(3,0,1):  91 y(0,3,1) + v(3,0,1) - u(3,0,1) <= 91
MCLin9(3,0,1):  91 y(0,3,1) - u(3,0,1) >= -0
MCLin10(3,0,1):  -78 y(0,3,1) + v(3,0,1) - u(3,0,1) >= -78
MCLinV(0,3,2):  x(0,2) - v(0,3,2) - x(3,2) = 10
MCLinV(3,0,2):  - x(0,2) - v(3,0,2) + x(3,2) = 5
MCLin1(0,3,2):  u(0,3,2) >= -0
MCLin2(0,3,2):  -81 y(3,0,2) - u(0,3,2) <= -0
MCLin3(0,3,2):  88 y(3,0,2) + v(0,3,2) - u(0,3,2) <= 88
MCLin4(0,3,2):  88 y(3,0,2) - u(0,3,2) >= -0
MCLin5(0,3,2):  -81 y(3,0,2) + v(0,3,2) - u(0,3,2) >= -81
MCLin6(3,0,2):  u(3,0,2) >= -0
MCLin7(3,0,2):  -103 y(0,3,2) - u(3,0,2) <= -0
MCLin8(3,0,2):  66 y(0,3,2) + v(3,0,2) - u(3,0,2) <= 66
MCLin9(3,0,2):  66 y(0,3,2) - u(3,0,2) >= -0
MCLin10(3,0,2):  -103 y(0,3,2) + v(3,0,2) - u(3,0,2) >= -103
MCLinV(0,3,3):  x(0,3) - v(0,3,3) - x(3,3) = 10
MCLinV(3,0,3):  - x(0,3) - v(3,0,3) + x(3,3) = 10
MCLin1(0,3,3):  u(0,3,3) >= -0
MCLin2(0,3,3):  -107 y(3,0,3) - u(0,3,3) <= -0
MCLin3(0,3,3):  62 y(3,0,3) + v(0,3,3) - u(0,3,3) <= 62
MCLin4(0,3,3):  62 y(3,0,3) - u(0,3,3) >= -0
MCLin5(0,3,3):  -107 y(3,0,3) + v(0,3,3) - u(0,3,3) >= -107
MCLin6(3,0,3):  u(3,0,3) >= -0
MCLin7(3,0,3):  -82 y(0,3,3) - u(3,0,3) <= -0
MCLin8(3,0,3):  87 y(0,3,3) + v(3,0,3) - u(3,0,3) <= 87
MCLin9(3,0,3):  87 y(0,3,3) - u(3,0,3) >= -0
MCLin10(3,0,3):  -82 y(0,3,3) + v(3,0,3) - u(3,0,3) >= -82
MCLinV(0,4,0):  x(0,0) - v(0,4,0) - x(4,0) = 9
MCLinV(4,0,0):  - x(0,0) - v(4,0,0) + x(4,0) = 3
MCLin1(0,4,0):  u(0,4,0) >= -0
MCLin2(0,4,0):  -110 y(4,0,0) - u(0,4,0) <= -0
MCLin3(0,4,0):  62 y(4,0,0) + v(0,4,0) - u(0,4,0) <= 62
MCLin4(0,4,0):  62 y(4,0,0) - u(0,4,0) >= -0
MCLin5(0,4,0):  -110 y(4,0,0) + v(0,4,0) - u(0,4,0) >= -110
MCLin6(4,0,0):  u(4,0,0) >= -0
MCLin7(4,0,0):  -74 y(0,4,0) - u(4,0,0) <= -0
MCLin8(4,0,0):  98 y(0,4,0) + v(4,0,0) - u(4,0,0) <= 98
MCLin9(4,0,0):  98 y(0,4,0) - u(4,0,0) >= -0
MCLin10(4,0,0):  -74 y(0,4,0) + v(4,0,0) - u(4,0,0) >= -74
MCLinV(0,4,1):  x(0,1) - v(0,4,1) - x(4,1) = 6
MCLinV(4,0,1):  - x(0,1) - v(4,0,1) + x(4,1) = 6
MCLin1(0,4,1):  u(0,4,1) >= -0
MCLin2(0,4,1):  -78 y(4,0,1) - u(0,4,1) <= -0
MCLin3(0,4,1):  94 y(4,0,1) + v(0,4,1) - u(0,4,1) <= 94
MCLin4(0,4,1):  94 y(4,0,1) - u(0,4,1) >= -0
MCLin5(0,4,1):  -78 y(4,0,1) + v(0,4,1) - u(0,4,1) >= -78
MCLin6(4,0,1):  u(4,0,1) >= -0
MCLin7(4,0,1):  -106 y(0,4,1) - u(4,0,1) <= -0
MCLin8(4,0,1):  66 y(0,4,1) + v(4,0,1) - u(4,0,1) <= 66
MCLin9(4,0,1):  66 y(0,4,1) - u(4,0,1) >= -0
MCLin10(4,0,1):  -106 y(0,4,1) + v(4,0,1) - u(4,0,1) >= -106
MCLinV(0,4,2):  x(0,2) - v(0,4,2) - x(4,2) = 10
MCLinV(4,0,2):  - x(0,2) - v(4,0,2) + x(4,2) = 5
MCLin1(0,4,2):  u(0,4,2) >= -0
MCLin2(0,4,2):  -82 y(4,0,2) - u(0,4,2) <= -0
MCLin3(0,4,2):  90 y(4,0,2) + v(0,4,2) - u(0,4,2) <= 90
MCLin4(0,4,2):  90 y(4,0,2) - u(0,4,2) >= -0
MCLin5(0,4,2):  -82 y(4,0,2) + v(0,4,2) - u(0,4,2) >= -82
MCLin6(4,0,2):  u(4,0,2) >= -0
MCLin7(4,0,2):  -105 y(0,4,2) - u(4,0,2) <= -0
MCLin8(4,0,2):  67 y(0,4,2) + v(4,0,2) - u(4,0,2) <= 67
MCLin9(4,0,2):  67 y(0,4,2) - u(4,0,2) >= -0
MCLin10(4,0,2):  -105 y(0,4,2) + v(4,0,2) - u(4,0,2) >= -105
MCLinV(0,4,3):  x(0,3) - v(0,4,3) - x(4,3) = 1
MCLinV(4,0,3):  - x(0,3) - v(4,0,3) + x(4,3) = 10
MCLin1(0,4,3):  u(0,4,3) >= -0
MCLin2(0,4,3):  -108 y(4,0,3) - u(0,4,3) <= -0
MCLin3(0,4,3):  64 y(4,0,3) + v(0,4,3) - u(0,4,3) <= 64
MCLin4(0,4,3):  64 y(4,0,3) - u(0,4,3) >= -0
MCLin5(0,4,3):  -108 y(4,0,3) + v(0,4,3) - u(0,4,3) >= -108
MCLin6(4,0,3):  u(4,0,3) >= -0
MCLin7(4,0,3):  -75 y(0,4,3) - u(4,0,3) <= -0
MCLin8(4,0,3):  97 y(0,4,3) + v(4,0,3) - u(4,0,3) <= 97
MCLin9(4,0,3):  97 y(0,4,3) - u(4,0,3) >= -0
MCLin10(4,0,3):  -75 y(0,4,3) + v(4,0,3) - u(4,0,3) >= -75
MCLinV(1,2,0):  x(1,0) - v(1,2,0) - x(2,0) = 2
MCLinV(2,1,0):  - x(1,0) - v(2,1,0) + x(2,0) = 3
MCLin1(1,2,0):  u(1,2,0) >= -0
MCLin2(1,2,0):  -93 y(2,1,0) - u(1,2,0) <= -0
MCLin3(1,2,0):  97 y(2,1,0) + v(1,2,0) - u(1,2,0) <= 97
MCLin4(1,2,0):  97 y(2,1,0) - u(1,2,0) >= -0
MCLin5(1,2,0):  -93 y(2,1,0) + v(1,2,0) - u(1,2,0) >= -93
MCLin6(2,1,0):  u(2,1,0) >= -0
MCLin7(2,1,0):  -102 y(1,2,0) - u(2,1,0) <= -0
MCLin8(2,1,0):  88 y(1,2,0) + v(2,1,0) - u(2,1,0) <= 88
MCLin9(2,1,0):  88 y(1,2,0) - u(2,1,0) >= -0
MCLin10(2,1,0):  -102 y(1,2,0) + v(2,1,0) - u(2,1,0) >= -102
MCLinV(1,2,1):  x(1,1) - v(1,2,1) - x(2,1) = 6
MCLinV(2,1,1):  - x(1,1) - v(2,1,1) + x(2,1) = 4
MCLin1(1,2,1):  u(1,2,1) >= -0
MCLin2(1,2,1):  -107 y(2,1,1) - u(1,2,1) <= -0
MCLin3(1,2,1):  83 y(2,1,1) + v(1,2,1) - u(1,2,1) <= 83
MCLin4(1,2,1):  83 y(2,1,1) - u(1,2,1) >= -0
MCLin5(1,2,1):  -107 y(2,1,1) + v(1,2,1) - u(1,2,1) >= -107
MCLin6(2,1,1):  u(2,1,1) >= -0
MCLin7(2,1,1):  -93 y(1,2,1) - u(2,1,1) <= -0
MCLin8(2,1,1):  97 y(1,2,1) + v(2,1,1) - u(2,1,1) <= 97
MCLin9(2,1,1):  97 y(1,2,1) - u(2,1,1) >= -0
MCLin10(2,1,1):  -93 y(1,2,1) + v(2,1,1) - u(2,1,1) >= -93
MCLinV(1,2,2):  x(1,2) - v(1,2,2) - x(2,2) = 1
MCLinV(2,1,2):  - x(1,2) - v(2,1,2) + x(2,2) = 1
MCLin1(1,2,2):  u(1,2,2) >= -0
MCLin2(1,2,2):  -95 y(2,1,2) - u(1,2,2) <= -0
MCLin3(1,2,2):  95 y(2,1,2) + v(1,2,2) - u(1,2,2) <= 95
MCLin4(1,2,2):  95 y(2,1,2) - u(1,2,2) >= -0
MCLin5(1,2,2):  -95 y(2,1,2) + v(1,2,2) - u(1,2,2) >= -95
MCLin6(2,1,2):  u(2,1,2) >= -0
MCLin7(2,1,2):  -97 y(1,2,2) - u(2,1,2) <= -0
MCLin8(2,1,2):  93 y(1,2,2) + v(2,1,2) - u(2,1,2) <= 93
MCLin9(2,1,2):  93 y(1,2,2) - u(2,1,2) >= -0
MCLin10(2,1,2):  -97 y(1,2,2) + v(2,1,2) - u(2,1,2) >= -97
MCLinV(1,2,3):  x(1,3) - v(1,2,3) - x(2,3) = 10
MCLinV(2,1,3):  - x(1,3) - v(2,1,3) + x(2,3) = 5
MCLin1(1,2,3):  u(1,2,3) >= -0
MCLin2(1,2,3):  -97 y(2,1,3) - u(1,2,3) <= -0
MCLin3(1,2,3):  93 y(2,1,3) + v(1,2,3) - u(1,2,3) <= 93
MCLin4(1,2,3):  93 y(2,1,3) - u(1,2,3) >= -0
MCLin5(1,2,3):  -97 y(2,1,3) + v(1,2,3) - u(1,2,3) >= -97
MCLin6(2,1,3):  u(2,1,3) >= -0
MCLin7(2,1,3):  -108 y(1,2,3) - u(2,1,3) <= -0
MCLin8(2,1,3):  82 y(1,2,3) + v(2,1,3) - u(2,1,3) <= 82
MCLin9(2,1,3):  82 y(1,2,3) - u(2,1,3) >= -0
MCLin10(2,1,3):  -108 y(1,2,3) + v(2,1,3) - u(2,1,3) >= -108
MCLinV(1,3,0):  x(1,0) - v(1,3,0) - x(3,0) = 8
MCLinV(3,1,0):  - x(1,0) - v(3,1,0) + x(3,0) = 3
MCLin1(1,3,0):  u(1,3,0) >= -0
MCLin2(1,3,0):  -89 y(3,1,0) - u(1,3,0) <= -0
MCLin3(1,3,0):  91 y(3,1,0) + v(1,3,0) - u(1,3,0) <= 91
MCLin4(1,3,0):  91 y(3,1,0) - u(1,3,0) >= -0
MCLin5(1,3,0):  -89 y(3,1,0) + v(1,3,0) - u(1,3,0) >= -89
MCLin6(3,1,0):  u(3,1,0) >= -0
MCLin7(3,1,0):  -102 y(1,3,0) - u(3,1,0) <= -0
MCLin8(3,1,0):  78 y(1,3,0) + v(3,1,0) - u(3,1,0) <= 78
MCLin9(3,1,0):  78 y(1,3,0) - u(3,1,0) >= -0
MCLin10(3,1,0):  -102 y(1,3,0) + v(3,1,0) - u(3,1,0) >= -102
MCLinV(1,3,1):  x(1,1) - v(1,3,1) - x(3,1) = 1
MCLinV(3,1,1):  - x(1,1) - v(3,1,1) + x(3,1) = 4
MCLin1(1,3,1):  u(1,3,1) >= -0
MCLin2(1,3,1):  -107 y(3,1,1) - u(1,3,1) <= -0
MCLin3(1,3,1):  73 y(3,1,1) + v(1,3,1) - u(1,3,1) <= 73
MCLin4(1,3,1):  73 y(3,1,1) - u(1,3,1) >= -0
MCLin5(1,3,1):  -107 y(3,1,1) + v(1,3,1) - u(1,3,1) >= -107
MCLin6(3,1,1):  u(3,1,1) >= -0
MCLin7(3,1,1):  -78 y(1,3,1) - u(3,1,1) <= -0
MCLin8(3,1,1):  102 y(1,3,1) + v(3,1,1) - u(3,1,1) <= 102
MCLin9(3,1,1):  102 y(1,3,1) - u(3,1,1) >= -0
MCLin10(3,1,1):  -78 y(1,3,1) + v(3,1,1) - u(3,1,1) >= -78
MCLinV(1,3,2):  x(1,2) - v(1,3,2) - x(3,2) = 10
MCLinV(3,1,2):  - x(1,2) - v(3,1,2) + x(3,2) = 1
MCLin1(1,3,2):  u(1,3,2) >= -0
MCLin2(1,3,2):  -100 y(3,1,2) - u(1,3,2) <= -0
MCLin3(1,3,2):  80 y(3,1,2) + v(1,3,2) - u(1,3,2) <= 80
MCLin4(1,3,2):  80 y(3,1,2) - u(1,3,2) >= -0
MCLin5(1,3,2):  -100 y(3,1,2) + v(1,3,2) - u(1,3,2) >= -100
MCLin6(3,1,2):  u(3,1,2) >= -0
MCLin7(3,1,2):  -91 y(1,3,2) - u(3,1,2) <= -0
MCLin8(3,1,2):  89 y(1,3,2) + v(3,1,2) - u(3,1,2) <= 89
MCLin9(3,1,2):  89 y(1,3,2) - u(3,1,2) >= -0
MCLin10(3,1,2):  -91 y(1,3,2) + v(3,1,2) - u(3,1,2) >= -91
MCLinV(1,3,3):  x(1,3) - v(1,3,3) - x(3,3) = 10
MCLinV(3,1,3):  - x(1,3) - v(3,1,3) + x(3,3) = 5
MCLin1(1,3,3):  u(1,3,3) >= -0
MCLin2(1,3,3):  -102 y(3,1,3) - u(1,3,3) <= -0
MCLin3(1,3,3):  78 y(3,1,3) + v(1,3,3) - u(1,3,3) <= 78
MCLin4(1,3,3):  78 y(3,1,3) - u(1,3,3) >= -0
MCLin5(1,3,3):  -102 y(3,1,3) + v(1,3,3) - u(1,3,3) >= -102
MCLin6(3,1,3):  u(3,1,3) >= -0
MCLin7(3,1,3):  -93 y(1,3,3) - u(3,1,3) <= -0
MCLin8(3,1,3):  87 y(1,3,3) + v(3,1,3) - u(3,1,3) <= 87
MCLin9(3,1,3):  87 y(1,3,3) - u(3,1,3) >= -0
MCLin10(3,1,3):  -93 y(1,3,3) + v(3,1,3) - u(3,1,3) >= -93
MCLinV(1,4,0):  x(1,0) - v(1,4,0) - x(4,0) = 9
MCLinV(4,1,0):  - x(1,0) - v(4,1,0) + x(4,0) = 3
MCLin1(1,4,0):  u(1,4,0) >= -0
MCLin2(1,4,0):  -109 y(4,1,0) - u(1,4,0) <= -0
MCLin3(1,4,0):  74 y(4,1,0) + v(1,4,0) - u(1,4,0) <= 74
MCLin4(1,4,0):  74 y(4,1,0) - u(1,4,0) >= -0
MCLin5(1,4,0):  -109 y(4,1,0) + v(1,4,0) - u(1,4,0) >= -109
MCLin6(4,1,0):  u(4,1,0) >= -0
MCLin7(4,1,0):  -86 y(1,4,0) - u(4,1,0) <= -0
MCLin8(4,1,0):  97 y(1,4,0) + v(4,1,0) - u(4,1,0) <= 97
MCLin9(4,1,0):  97 y(1,4,0) - u(4,1,0) >= -0
MCLin10(4,1,0):  -86 y(1,4,0) + v(4,1,0) - u(4,1,0) >= -86
MCLinV(1,4,1):  x(1,1) - v(1,4,1) - x(4,1) = 6
MCLinV(4,1,1):  - x(1,1) - v(4,1,1) + x(4,1) = 4
MCLin1(1,4,1):  u(1,4,1) >= -0
MCLin2(1,4,1):  -87 y(4,1,1) - u(1,4,1) <= -0
MCLin3(1,4,1):  96 y(4,1,1) + v(1,4,1) - u(1,4,1) <= 96
MCLin4(1,4,1):  96 y(4,1,1) - u(1,4,1) >= -0
MCLin5(1,4,1):  -87 y(4,1,1) + v(1,4,1) - u(1,4,1) >= -87
MCLin6(4,1,1):  u(4,1,1) >= -0
MCLin7(4,1,1):  -106 y(1,4,1) - u(4,1,1) <= -0
MCLin8(4,1,1):  77 y(1,4,1) + v(4,1,1) - u(4,1,1) <= 77
MCLin9(4,1,1):  77 y(1,4,1) - u(4,1,1) >= -0
MCLin10(4,1,1):  -106 y(1,4,1) + v(4,1,1) - u(4,1,1) >= -106
MCLinV(1,4,2):  x(1,2) - v(1,4,2) - x(4,2) = 10
MCLinV(4,1,2):  - x(1,2) - v(4,1,2) + x(4,2) = 1
MCLin1(1,4,2):  u(1,4,2) >= -0
MCLin2(1,4,2):  -101 y(4,1,2) - u(1,4,2) <= -0
MCLin3(1,4,2):  82 y(4,1,2) + v(1,4,2) - u(1,4,2) <= 82
MCLin4(1,4,2):  82 y(4,1,2) - u(1,4,2) >= -0
MCLin5(1,4,2):  -101 y(4,1,2) + v(1,4,2) - u(1,4,2) >= -101
MCLin6(4,1,2):  u(4,1,2) >= -0
MCLin7(4,1,2):  -93 y(1,4,2) - u(4,1,2) <= -0
MCLin8(4,1,2):  90 y(1,4,2) + v(4,1,2) - u(4,1,2) <= 90
MCLin9(4,1,2):  90 y(1,4,2) - u(4,1,2) >= -0
MCLin10(4,1,2):  -93 y(1,4,2) + v(4,1,2) - u(4,1,2) >= -93
MCLinV(1,4,3):  x(1,3) - v(1,4,3) - x(4,3) = 1
MCLinV(4,1,3):  - x(1,3) - v(4,1,3) + x(4,3) = 5
MCLin1(1,4,3):  u(1,4,3) >= -0
MCLin2(1,4,3):  -103 y(4,1,3) - u(1,4,3) <= -0
MCLin3(1,4,3):  80 y(4,1,3) + v(1,4,3) - u(1,4,3) <= 80
MCLin4(1,4,3):  80 y(4,1,3) - u(1,4,3) >= -0
MCLin5(1,4,3):  -103 y(4,1,3) + v(1,4,3) - u(1,4,3) >= -103
MCLin6(4,1,3):  u(4,1,3) >= -0
MCLin7(4,1,3):  -86 y(1,4,3) - u(4,1,3) <= -0
MCLin8(4,1,3):  97 y(1,4,3) + v(4,1,3) - u(4,1,3) <= 97
MCLin9(4,1,3):  97 y(1,4,3) - u(4,1,3) >= -0
MCLin10(4,1,3):  -86 y(1,4,3) + v(4,1,3) - u(4,1,3) >= -86
MCLinV(2,3,0):  x(2,0) - v(2,3,0) - x(3,0) = 8
MCLinV(3,2,0):  - x(2,0) - v(3,2,0) + x(3,0) = 2
MCLin1(2,3,0):  u(2,3,0) >= -0
MCLin2(2,3,0):  -90 y(3,2,0) - u(2,3,0) <= -0
MCLin3(2,3,0):  84 y(3,2,0) + v(2,3,0) - u(2,3,0) <= 84
MCLin4(2,3,0):  84 y(3,2,0) - u(2,3,0) >= -0
MCLin5(2,3,0):  -90 y(3,2,0) + v(2,3,0) - u(2,3,0) >= -90
MCLin6(3,2,0):  u(3,2,0) >= -0
MCLin7(3,2,0):  -94 y(2,3,0) - u(3,2,0) <= -0
MCLin8(3,2,0):  80 y(2,3,0) + v(3,2,0) - u(3,2,0) <= 80
MCLin9(3,2,0):  80 y(2,3,0) - u(3,2,0) >= -0
MCLin10(3,2,0):  -94 y(2,3,0) + v(3,2,0) - u(3,2,0) >= -94
MCLinV(2,3,1):  x(2,1) - v(2,3,1) - x(3,1) = 1
MCLinV(3,2,1):  - x(2,1) - v(3,2,1) + x(3,1) = 6
MCLin1(2,3,1):  u(2,3,1) >= -0
MCLin2(2,3,1):  -98 y(3,2,1) - u(2,3,1) <= -0
MCLin3(2,3,1):  76 y(3,2,1) + v(2,3,1) - u(2,3,1) <= 76
MCLin4(2,3,1):  76 y(3,2,1) - u(2,3,1) >= -0
MCLin5(2,3,1):  -98 y(3,2,1) + v(2,3,1) - u(2,3,1) >= -98
MCLin6(3,2,1):  u(3,2,1) >= -0
MCLin7(3,2,1):  -83 y(2,3,1) - u(3,2,1) <= -0
MCLin8(3,2,1):  91 y(2,3,1) + v(3,2,1) - u(3,2,1) <= 91
MCLin9(3,2,1):  91 y(2,3,1) - u(3,2,1) >= -0
MCLin10(3,2,1):  -83 y(2,3,1) + v(3,2,1) - u(3,2,1) >= -83
MCLinV(2,3,2):  x(2,2) - v(2,3,2) - x(3,2) = 10
MCLinV(3,2,2):  - x(2,2) - v(3,2,2) + x(3,2) = 1
MCLin1(2,3,2):  u(2,3,2) >= -0
MCLin2(2,3,2):  -98 y(3,2,2) - u(2,3,2) <= -0
MCLin3(2,3,2):  76 y(3,2,2) + v(2,3,2) - u(2,3,2) <= 76
MCLin4(2,3,2):  76 y(3,2,2) - u(2,3,2) >= -0
MCLin5(2,3,2):  -98 y(3,2,2) + v(2,3,2) - u(2,3,2) >= -98
MCLin6(3,2,2):  u(3,2,2) >= -0
MCLin7(3,2,2):  -87 y(2,3,2) - u(3,2,2) <= -0
MCLin8(3,2,2):  87 y(2,3,2) + v(3,2,2) - u(3,2,2) <= 87
MCLin9(3,2,2):  87 y(2,3,2) - u(3,2,2) >= -0
MCLin10(3,2,2):  -87 y(2,3,2) + v(3,2,2) - u(3,2,2) >= -87
MCLinV(2,3,3):  x(2,3) - v(2,3,3) - x(3,3) = 10
MCLinV(3,2,3):  - x(2,3) - v(3,2,3) + x(3,3) = 10
MCLin1(2,3,3):  u(2,3,3) >= -0
MCLin2(2,3,3):  -107 y(3,2,3) - u(2,3,3) <= -0
MCLin3(2,3,3):  67 y(3,2,3) + v(2,3,3) - u(2,3,3) <= 67
MCLin4(2,3,3):  67 y(3,2,3) - u(2,3,3) >= -0
MCLin5(2,3,3):  -107 y(3,2,3) + v(2,3,3) - u(2,3,3) >= -107
MCLin6(3,2,3):  u(3,2,3) >= -0
MCLin7(3,2,3):  -87 y(2,3,3) - u(3,2,3) <= -0
MCLin8(3,2,3):  87 y(2,3,3) + v(3,2,3) - u(3,2,3) <= 87
MCLin9(3,2,3):  87 y(2,3,3) - u(3,2,3) >= -0
MCLin10(3,2,3):  -87 y(2,3,3) + v(3,2,3) - u(3,2,3) >= -87
MCLinV(2,4,0):  x(2,0) - v(2,4,0) - x(4,0) = 9
MCLinV(4,2,0):  - x(2,0) - v(4,2,0) + x(4,0) = 2
MCLin1(2,4,0):  u(2,4,0) >= -0
MCLin2(2,4,0):  -110 y(4,2,0) - u(2,4,0) <= -0
MCLin3(2,4,0):  67 y(4,2,0) + v(2,4,0) - u(2,4,0) <= 67
MCLin4(2,4,0):  67 y(4,2,0) - u(2,4,0) >= -0
MCLin5(2,4,0):  -110 y(4,2,0) + v(2,4,0) - u(2,4,0) >= -110
MCLin6(4,2,0):  u(4,2,0) >= -0
MCLin7(4,2,0):  -78 y(2,4,0) - u(4,2,0) <= -0
MCLin8(4,2,0):  99 y(2,4,0) + v(4,2,0) - u(4,2,0) <= 99
MCLin9(4,2,0):  99 y(2,4,0) - u(4,2,0) >= -0
MCLin10(4,2,0):  -78 y(2,4,0) + v(4,2,0) - u(4,2,0) >= -78
MCLinV(2,4,1):  x(2,1) - v(2,4,1) - x(4,1) = 6
MCLinV(4,2,1):  - x(2,1) - v(4,2,1) + x(4,1) = 6
MCLin1(2,4,1):  u(2,4,1) >= -0
MCLin2(2,4,1):  -78 y(4,2,1) - u(2,4,1) <= -0
MCLin3(2,4,1):  99 y(4,2,1) + v(2,4,1) - u(2,4,1) <= 99
MCLin4(2,4,1):  99 y(4,2,1) - u(2,4,1) >= -0
MCLin5(2,4,1):  -78 y(4,2,1) + v(2,4,1) - u(2,4,1) >= -78
MCLin6(4,2,1):  u(4,2,1) >= -0
MCLin7(4,2,1):  -111 y(2,4,1) - u(4,2,1) <= -0
MCLin8(4,2,1):  66 y(2,4,1) + v(4,2,1) - u(4,2,1) <= 66
MCLin9(4,2,1):  66 y(2,4,1) - u(4,2,1) >= -0
MCLin10(4,2,1):  -111 y(2,4,1) + v(4,2,1) - u(4,2,1) >= -111
MCLinV(2,4,2):  x(2,2) - v(2,4,2) - x(4,2) = 10
MCLinV(4,2,2):  - x(2,2) - v(4,2,2) + x(4,2) = 1
MCLin1(2,4,2):  u(2,4,2) >= -0
MCLin2(2,4,2):  -99 y(4,2,2) - u(2,4,2) <= -0
MCLin3(2,4,2):  78 y(4,2,2) + v(2,4,2) - u(2,4,2) <= 78
MCLin4(2,4,2):  78 y(4,2,2) - u(2,4,2) >= -0
MCLin5(2,4,2):  -99 y(4,2,2) + v(2,4,2) - u(2,4,2) >= -99
MCLin6(4,2,2):  u(4,2,2) >= -0
MCLin7(4,2,2):  -89 y(2,4,2) - u(4,2,2) <= -0
MCLin8(4,2,2):  88 y(2,4,2) + v(4,2,2) - u(4,2,2) <= 88
MCLin9(4,2,2):  88 y(2,4,2) - u(4,2,2) >= -0
MCLin10(4,2,2):  -89 y(2,4,2) + v(4,2,2) - u(4,2,2) >= -89
MCLinV(2,4,3):  x(2,3) - v(2,4,3) - x(4,3) = 1
MCLinV(4,2,3):  - x(2,3) - v(4,2,3) + x(4,3) = 10
MCLin1(2,4,3):  u(2,4,3) >= -0
MCLin2(2,4,3):  -108 y(4,2,3) - u(2,4,3) <= -0
MCLin3(2,4,3):  69 y(4,2,3) + v(2,4,3) - u(2,4,3) <= 69
MCLin4(2,4,3):  69 y(4,2,3) - u(2,4,3) >= -0
MCLin5(2,4,3):  -108 y(4,2,3) + v(2,4,3) - u(2,4,3) >= -108
MCLin6(4,2,3):  u(4,2,3) >= -0
MCLin7(4,2,3):  -80 y(2,4,3) - u(4,2,3) <= -0
MCLin8(4,2,3):  97 y(2,4,3) + v(4,2,3) - u(4,2,3) <= 97
MCLin9(4,2,3):  97 y(2,4,3) - u(4,2,3) >= -0
MCLin10(4,2,3):  -80 y(2,4,3) + v(4,2,3) - u(4,2,3) >= -80
MCLinV(3,4,0):  x(3,0) - v(3,4,0) - x(4,0) = 9
MCLinV(4,3,0):  - x(3,0) - v(4,3,0) + x(4,0) = 8
MCLin1(3,4,0):  u(3,4,0) >= -0
MCLin2(3,4,0):  -110 y(4,3,0) - u(3,4,0) <= -0
MCLin3(3,4,0):  57 y(4,3,0) + v(3,4,0) - u(3,4,0) <= 57
MCLin4(3,4,0):  57 y(4,3,0) - u(3,4,0) >= -0
MCLin5(3,4,0):  -110 y(4,3,0) + v(3,4,0) - u(3,4,0) >= -110
MCLin6(4,3,0):  u(4,3,0) >= -0
MCLin7(4,3,0):  -74 y(3,4,0) - u(4,3,0) <= -0
MCLin8(4,3,0):  93 y(3,4,0) + v(4,3,0) - u(4,3,0) <= 93
MCLin9(4,3,0):  93 y(3,4,0) - u(4,3,0) >= -0
MCLin10(4,3,0):  -74 y(3,4,0) + v(4,3,0) - u(4,3,0) >= -74
MCLinV(3,4,1):  x(3,1) - v(3,4,1) - x(4,1) = 6
MCLinV(4,3,1):  - x(3,1) - v(4,3,1) + x(4,1) = 1
MCLin1(3,4,1):  u(3,4,1) >= -0
MCLin2(3,4,1):  -63 y(4,3,1) - u(3,4,1) <= -0
MCLin3(3,4,1):  104 y(4,3,1) + v(3,4,1) - u(3,4,1) <= 104
MCLin4(3,4,1):  104 y(4,3,1) - u(3,4,1) >= -0
MCLin5(3,4,1):  -63 y(4,3,1) + v(3,4,1) - u(3,4,1) >= -63
MCLin6(4,3,1):  u(4,3,1) >= -0
MCLin7(4,3,1):  -111 y(3,4,1) - u(4,3,1) <= -0
MCLin8(4,3,1):  56 y(3,4,1) + v(4,3,1) - u(4,3,1) <= 56
MCLin9(4,3,1):  56 y(3,4,1) - u(4,3,1) >= -0
MCLin10(4,3,1):  -111 y(3,4,1) + v(4,3,1) - u(4,3,1) >= -111
MCLinV(3,4,2):  x(3,2) - v(3,4,2) - x(4,2) = 10
MCLinV(4,3,2):  - x(3,2) - v(4,3,2) + x(4,2) = 10
MCLin1(3,4,2):  u(3,4,2) >= -0
MCLin2(3,4,2):  -93 y(4,3,2) - u(3,4,2) <= -0
MCLin3(3,4,2):  74 y(4,3,2) + v(3,4,2) - u(3,4,2) <= 74
MCLin4(3,4,2):  74 y(4,3,2) - u(3,4,2) >= -0
MCLin5(3,4,2):  -93 y(4,3,2) + v(3,4,2) - u(3,4,2) >= -93
MCLin6(4,3,2):  u(4,3,2) >= -0
MCLin7(4,3,2):  -94 y(3,4,2) - u(4,3,2) <= -0
MCLin8(4,3,2):  73 y(3,4,2) + v(4,3,2) - u(4,3,2) <= 73
MCLin9(4,3,2):  73 y(3,4,2) - u(4,3,2) >= -0
MCLin10(4,3,2):  -94 y(3,4,2) + v(4,3,2) - u(4,3,2) >= -94
MCLinV(3,4,3):  x(3,3) - v(3,4,3) - x(4,3) = 1
MCLinV(4,3,3):  - x(3,3) - v(4,3,3) + x(4,3) = 10
MCLin1(3,4,3):  u(3,4,3) >= -0
MCLin2(3,4,3):  -93 y(4,3,3) - u(3,4,3) <= -0
MCLin3(3,4,3):  74 y(4,3,3) + v(3,4,3) - u(3,4,3) <= 74
MCLin4(3,4,3):  74 y(4,3,3) - u(3,4,3) >= -0
MCLin5(3,4,3):  -93 y(4,3,3) + v(3,4,3) - u(3,4,3) >= -93
MCLin6(4,3,3):  u(4,3,3) >= -0
MCLin7(4,3,3):  -85 y(3,4,3) - u(4,3,3) <= -0
MCLin8(4,3,3):  82 y(3,4,3) + v(4,3,3) - u(4,3,3) <= 82
MCLin9(4,3,3):  82 y(3,4,3) - u(4,3,3) >= -0
MCLin10(4,3,3):  -85 y(3,4,3) + v(4,3,3) - u(4,3,3) >= -85
makespan(0):  C - x(0,2) >= 5
makespan(1):  C - x(1,3) >= 5
makespan(2):  C - x(2,1) >= 6
makespan(3):  C - x(3,1) >= 1
makespan(4):  C - x(4,3) >= 1
Bounds
 0 <= C <= 111
 0 <= x(0,0) <= 87
 0 <= y(0,1,0) <= 1
 0 <= y(1,0,0) <= 1
 -102 <= v(0,1,0) <= 83
 -89 <= v(1,0,0) <= 96
 -1110 <= u(0,1,0)
 -1110 <= u(1,0,0)
 0 <= y(0,2,0) <= 1
 0 <= y(2,0,0) <= 1
 -94 <= v(0,2,0) <= 85
 -90 <= v(2,0,0) <= 89
 -1110 <= u(0,2,0)
 -1110 <= u(2,0,0)
 0 <= y(0,3,0) <= 1
 0 <= y(3,0,0) <= 1
 -90 <= v(0,3,0) <= 79
 -90 <= v(3,0,0) <= 79
 -1110 <= u(0,3,0)
 -1110 <= u(3,0,0)
 0 <= y(0,4,0) <= 1
 0 <= y(4,0,0) <= 1
 -110 <= v(0,4,0) <= 62
 -74 <= v(4,0,0) <= 98
 -1110 <= u(0,4,0)
 -1110 <= u(4,0,0)
 1 <= x(1,0) <= 99
 0 <= y(1,2,0) <= 1
 0 <= y(2,1,0) <= 1
 -93 <= v(1,2,0) <= 97
 -102 <= v(2,1,0) <= 88
 -1110 <= u(1,2,0)
 -1110 <= u(2,1,0)
 0 <= y(1,3,0) <= 1
 0 <= y(3,1,0) <= 1
 -89 <= v(1,3,0) <= 91
 -102 <= v(3,1,0) <= 78
 -1110 <= u(1,3,0)
 -1110 <= u(3,1,0)
 0 <= y(1,4,0) <= 1
 0 <= y(4,1,0) <= 1
 -109 <= v(1,4,0) <= 74
 -86 <= v(4,1,0) <= 97
 -1110 <= u(1,4,0)
 -1110 <= u(4,1,0)
 0 <= x(2,0) <= 92
 0 <= y(2,3,0) <= 1
 0 <= y(3,2,0) <= 1
 -90 <= v(2,3,0) <= 84
 -94 <= v(3,2,0) <= 80
 -1110 <= u(2,3,0)
 -1110 <= u(3,2,0)
 0 <= y(2,4,0) <= 1
 0 <= y(4,2,0) <= 1
 -110 <= v(2,4,0) <= 67
 -78 <= v(4,2,0) <= 99
 -1110 <= u(2,4,0)
 -1110 <= u(4,2,0)
 0 <= x(3,0) <= 82
 0 <= y(3,4,0) <= 1
 0 <= y(4,3,0) <= 1
 -110 <= v(3,4,0) <= 57
 -74 <= v(4,3,0) <= 93
 -1110 <= u(3,4,0)
 -1110 <= u(4,3,0)
 16 <= x(4,0) <= 101
 13 <= x(0,1) <= 100
 0 <= y(0,1,1) <= 1
 0 <= y(1,0,1) <= 1
 -93 <= v(0,1,1) <= 92
 -102 <= v(1,0,1) <= 83
 -1110 <= u(0,1,1)
 -1110 <= u(1,0,1)
 0 <= y(0,2,1) <= 1
 0 <= y(2,0,1) <= 1
 -98 <= v(0,2,1) <= 81
 -93 <= v(2,0,1) <= 86
 -1110 <= u(0,2,1)
 -1110 <= u(2,0,1)
 0 <= y(0,3,1) <= 1
 0 <= y(3,0,1) <= 1
 -98 <= v(0,3,1) <= 71
 -78 <= v(3,0,1) <= 91
 -1110 <= u(0,3,1)
 -1110 <= u(3,0,1)
 0 <= y(0,4,1) <= 1
 0 <= y(4,0,1) <= 1
 -78 <= v(0,4,1) <= 94
 -106 <= v(4,0,1) <= 66
 -1110 <= u(0,4,1)
 -1110 <= u(4,0,1)
 4 <= x(1,1) <= 102
 0 <= y(1,2,1) <= 1
 0 <= y(2,1,1) <= 1
 -107 <= v(1,2,1) <= 83
 -93 <= v(2,1,1) <= 97
 -1110 <= u(1,2,1)
 -1110 <= u(2,1,1)
 0 <= y(1,3,1) <= 1
 0 <= y(3,1,1) <= 1
 -107 <= v(1,3,1) <= 73
 -78 <= v(3,1,1) <= 102
 -1110 <= u(1,3,1)
 -1110 <= u(3,1,1)
 0 <= y(1,4,1) <= 1
 0 <= y(4,1,1) <= 1
 -87 <= v(1,4,1) <= 96
 -106 <= v(4,1,1) <= 77
 -1110 <= u(1,4,1)
 -1110 <= u(4,1,1)
 13 <= x(2,1) <= 105
 0 <= y(2,3,1) <= 1
 0 <= y(3,2,1) <= 1
 -98 <= v(2,3,1) <= 76
 -83 <= v(3,2,1) <= 91
 -1110 <= u(2,3,1)
 -1110 <= u(3,2,1)
 0 <= y(2,4,1) <= 1
 0 <= y(4,2,1) <= 1
 -78 <= v(2,4,1) <= 99
 -111 <= v(4,2,1) <= 66
 -1110 <= u(2,4,1)
 -1110 <= u(4,2,1)
 28 <= x(3,1) <= 110
 0 <= y(3,4,1) <= 1
 0 <= y(4,3,1) <= 1
 -63 <= v(3,4,1) <= 104
 -111 <= v(4,3,1) <= 56
 -1110 <= u(3,4,1)
 -1110 <= u(4,3,1)
 0 <= x(4,1) <= 85
 19 <= x(0,2) <= 106
 0 <= y(0,1,2) <= 1
 0 <= y(1,0,2) <= 1
 -80 <= v(0,1,2) <= 105
 -111 <= v(1,0,2) <= 74
 -1110 <= u(0,1,2)
 -1110 <= u(1,0,2)
 0 <= y(0,2,2) <= 1
 0 <= y(2,0,2) <= 1
 -76 <= v(0,2,2) <= 103
 -109 <= v(2,0,2) <= 70
 -1110 <= u(0,2,2)
 -1110 <= u(2,0,2)
 0 <= y(0,3,2) <= 1
 0 <= y(3,0,2) <= 1
 -81 <= v(0,3,2) <= 88
 -103 <= v(3,0,2) <= 66
 -1110 <= u(0,3,2)
 -1110 <= u(3,0,2)
 0 <= y(0,4,2) <= 1
 0 <= y(4,0,2) <= 1
 -82 <= v(0,4,2) <= 90
 -105 <= v(4,0,2) <= 67
 -1110 <= u(0,4,2)
 -1110 <= u(4,0,2)
 0 <= x(1,2) <= 98
 0 <= y(1,2,2) <= 1
 0 <= y(2,1,2) <= 1
 -95 <= v(1,2,2) <= 95
 -97 <= v(2,1,2) <= 93
 -1110 <= u(1,2,2)
 -1110 <= u(2,1,2)
 0 <= y(1,3,2) <= 1
 0 <= y(3,1,2) <= 1
 -100 <= v(1,3,2) <= 80
 -91 <= v(3,1,2) <= 89
 -1110 <= u(1,3,2)
 -1110 <= u(3,1,2)
 0 <= y(1,4,2) <= 1
 0 <= y(4,1,2) <= 1
 -101 <= v(1,4,2) <= 82
 -93 <= v(4,1,2) <= 90
 -1110 <= u(1,4,2)
 -1110 <= u(4,1,2)
 2 <= x(2,2) <= 94
 0 <= y(2,3,2) <= 1
 0 <= y(3,2,2) <= 1
 -98 <= v(2,3,2) <= 76
 -87 <= v(3,2,2) <= 87
 -1110 <= u(2,3,2)
 -1110 <= u(3,2,2)
 0 <= y(2,4,2) <= 1
 0 <= y(4,2,2) <= 1
 -99 <= v(2,4,2) <= 78
 -89 <= v(4,2,2) <= 88
 -1110 <= u(2,4,2)
 -1110 <= u(4,2,2)
 8 <= x(3,2) <= 90
 0 <= y(3,4,2) <= 1
 0 <= y(4,3,2) <= 1
 -93 <= v(3,4,2) <= 74
 -94 <= v(4,3,2) <= 73
 -1110 <= u(3,4,2)
 -1110 <= u(4,3,2)
 6 <= x(4,2) <= 91
 3 <= x(0,3) <= 90
 0 <= y(0,1,3) <= 1
 0 <= y(1,0,3) <= 1
 -108 <= v(0,1,3) <= 77
 -92 <= v(1,0,3) <= 93
 -1110 <= u(0,1,3)
 -1110 <= u(1,0,3)
 0 <= y(0,2,3) <= 1
 0 <= y(2,0,3) <= 1
 -102 <= v(0,2,3) <= 77
 -97 <= v(2,0,3) <= 82
 -1110 <= u(0,2,3)
 -1110 <= u(2,0,3)
 0 <= y(0,3,3) <= 1
 0 <= y(3,0,3) <= 1
 -107 <= v(0,3,3) <= 62
 -82 <= v(3,0,3) <= 87
 -1110 <= u(0,3,3)
 -1110 <= u(3,0,3)
 0 <= y(0,4,3) <= 1
 0 <= y(4,0,3) <= 1
 -108 <= v(0,4,3) <= 64
 -75 <= v(4,0,3) <= 97
 -1110 <= u(0,4,3)
 -1110 <= u(4,0,3)
 8 <= x(1,3) <= 106
 0 <= y(1,2,3) <= 1
 0 <= y(2,1,3) <= 1
 -97 <= v(1,2,3) <= 93
 -108 <= v(2,1,3) <= 82
 -1110 <= u(1,2,3)
 -1110 <= u(2,1,3)
 0 <= y(1,3,3) <= 1
 0 <= y(3,1,3) <= 1
 -102 <= v(1,3,3) <= 78
 -93 <= v(3,1,3) <= 87
 -1110 <= u(1,3,3)
 -1110 <= u(3,1,3)
 0 <= y(1,4,3) <= 1
 0 <= y(4,1,3) <= 1
 -103 <= v(1,4,3) <= 80
 -86 <= v(4,1,3) <= 97
 -1110 <= u(1,4,3)
 -1110 <= u(4,1,3)
 3 <= x(2,3) <= 95
 0 <= y(2,3,3) <= 1
 0 <= y(3,2,3) <= 1
 -107 <= v(2,3,3) <= 67
 -87 <= v(3,2,3) <= 87
 -1110 <= u(2,3,3)
 -1110 <= u(3,2,3)
 0 <= y(2,4,3) <= 1
 0 <= y(4,2,3) <= 1
 -108 <= v(2,4,3) <= 69
 -80 <= v(4,2,3) <= 97
 -1110 <= u(2,4,3)
 -1110 <= u(4,2,3)
 18 <= x(3,3) <= 100
 0 <= y(3,4,3) <= 1
 0 <= y(4,3,3) <= 1
 -93 <= v(3,4,3) <= 74
 -85 <= v(4,3,3) <= 82
 -1110 <= u(3,4,3)
 -1110 <= u(4,3,3)
 25 <= x(4,3) <= 110
Integers
C x(0,0) y(0,1,0) y(1,0,0) v(0,1,0) v(1,0,0) u(0,1,0) u(1,0,0) y(0,2,0) y(2,0,0) 
v(0,2,0) v(2,0,0) u(0,2,0) u(2,0,0) y(0,3,0) y(3,0,0) v(0,3,0) v(3,0,0) u(0,3,0) u(3,0,0) 
y(0,4,0) y(4,0,0) v(0,4,0) v(4,0,0) u(0,4,0) u(4,0,0) x(1,0) y(1,2,0) y(2,1,0) v(1,2,0) 
v(2,1,0) u(1,2,0) u(2,1,0) y(1,3,0) y(3,1,0) v(1,3,0) v(3,1,0) u(1,3,0) u(3,1,0) y(1,4,0) 
y(4,1,0) v(1,4,0) v(4,1,0) u(1,4,0) u(4,1,0) x(2,0) y(2,3,0) y(3,2,0) v(2,3,0) v(3,2,0) 
u(2,3,0) u(3,2,0) y(2,4,0) y(4,2,0) v(2,4,0) v(4,2,0) u(2,4,0) u(4,2,0) x(3,0) y(3,4,0) 
y(4,3,0) v(3,4,0) v(4,3,0) u(3,4,0) u(4,3,0) x(4,0) x(0,1) y(0,1,1) y(1,0,1) v(0,1,1) 
v(1,0,1) u(0,1,1) u(1,0,1) y(0,2,1) y(2,0,1) v(0,2,1) v(2,0,1) u(0,2,1) u(2,0,1) y(0,3,1) 
y(3,0,1) v(0,3,1) v(3,0,1) u(0,3,1) u(3,0,1) y(0,4,1) y(4,0,1) v(0,4,1) v(4,0,1) u(0,4,1) 
u(4,0,1) x(1,1) y(1,2,1) y(2,1,1) v(1,2,1) v(2,1,1) u(1,2,1) u(2,1,1) y(1,3,1) y(3,1,1) 
v(1,3,1) v(3,1,1) u(1,3,1) u(3,1,1) y(1,4,1) y(4,1,1) v(1,4,1) v(4,1,1) u(1,4,1) u(4,1,1) 
x(2,1) y(2,3,1) y(3,2,1) v(2,3,1) v(3,2,1) u(2,3,1) u(3,2,1) y(2,4,1) y(4,2,1) v(2,4,1) 
v(4,2,1) u(2,4,1) u(4,2,1) x(3,1) y(3,4,1) y(4,3,1) v(3,4,1) v(4,3,1) u(3,4,1) u(4,3,1) 
x(4,1) x(0,2) y(0,1,2) y(1,0,2) v(0,1,2) v(1,0,2) u(0,1,2) u(1,0,2) y(0,2,2) y(2,0,2) 
v(0,2,2) v(2,0,2) u(0,2,2) u(2,0,2) y(0,3,2) y(3,0,2) v(0,3,2) v(3,0,2) u(0,3,2) u(3,0,2) 
y(0,4,2) y(4,0,2) v(0,4,2) v(4,0,2) u(0,4,2) u(4,0,2) x(1,2) y(1,2,2) y(2,1,2) v(1,2,2) 
v(2,1,2) u(1,2,2) u(2,1,2) y(1,3,2) y(3,1,2) v(1,3,2) v(3,1,2) u(1,3,2) u(3,1,2) y(1,4,2) 
y(4,1,2) v(1,4,2) v(4,1,2) u(1,4,2) u(4,1,2) x(2,2) y(2,3,2) y(3,2,2) v(2,3,2) v(3,2,2) 
u(2,3,2) u(3,2,2) y(2,4,2) y(4,2,2) v(2,4,2) v(4,2,2) u(2,4,2) u(4,2,2) x(3,2) y(3,4,2) 
y(4,3,2) v(3,4,2) v(4,3,2) u(3,4,2) u(4,3,2) x(4,2) x(0,3) y(0,1,3) y(1,0,3) v(0,1,3) 
v(1,0,3) u(0,1,3) u(1,0,3) y(0,2,3) y(2,0,3) v(0,2,3) v(2,0,3) u(0,2,3) u(2,0,3) y(0,3,3) 
y(3,0,3) v(0,3,3) v(3,0,3) u(0,3,3) u(3,0,3) y(0,4,3) y(4,0,3) v(0,4,3) v(4,0,3) u(0,4,3) 
u(4,0,3) x(1,3) y(1,2,3) y(2,1,3) v(1,2,3) v(2,1,3) u(1,2,3) u(2,1,3) y(1,3,3) y(3,1,3) 
v(1,3,3) v(3,1,3) u(1,3,3) u(3,1,3) y(1,4,3) y(4,1,3) v(1,4,3) v(4,1,3) u(1,4,3) u(4,1,3) 
x(2,3) y(2,3,3) y(3,2,3) v(2,3,3) v(3,2,3) u(2,3,3) u(3,2,3) y(2,4,3) y(4,2,3) v(2,4,3) 
v(4,2,3) u(2,4,3) u(4,2,3) x(3,3) y(3,4,3) y(4,3,3) v(3,4,3) v(4,3,3) u(3,4,3) u(4,3,3) 
x(4,3) 
End
